g3 0 1 0	# problem d6n6R1R6d005d05
 6 6 1 0 1	# vars, constraints, objectives, ranges, eqns
 3 1	# nonlinear constraints, objectives
 0 0	# network constraints: nonlinear, linear
 6 6 6	# nonlinear vars in constraints, objectives, both
 0 0 0 1	# linear network variables; functions; arith, flags
 0 0 0 0 0	# discrete variables: binary, integer, nonlinear (b,c,o)
 33 6	# nonzeros in Jacobian, gradients
 0 0	# max name lengths: constraints, variables
 0 0 0 0 0	# common exprs: b,c,o,c1,o1
b
0 0.25 2.9
0 0.12 2.14
0 0.97 2.66
0 0.11 2.31
0 0.29 2.47
0 0.37 2.3
r
2 45.05
2 107.774
2 333.356
4 19.359
2 -2.737
2 40.732
C0
o0
o2
o2
o2
n7.84
v0
v0
v4
o2
o2
o2
n2.1
v0
v4
v4
C1
o54
3
o2
o2
o2
n2.81
v0
v0
v4
o2
o2
o2
n3.91
v0
v4
v4
o2
o2
o2
o2
n7.17
v0
v0
v2
v2
C2
o54
20
o16
o2
o2
o2
n7.07
v0
v0
v4
o2
o2
o2
n5.01
v0
v4
v4
o2
o2
o2
o2
n2.13
v0
v0
v2
v2
o2
o2
o2
o2
o2
n8.84
v0
v0
v1
v2
v4
o2
o2
o2
o2
o2
n7.25
v0
v0
v2
v2
v4
o16
o2
o2
o2
o2
o2
n4.97
v0
v1
v1
v1
v5
o2
o2
o2
o2
o2
n0.16
v0
v1
v1
v2
v2
o2
o2
o2
o2
o2
n6.38
v0
v1
v2
v3
v5
o16
o2
o2
o2
o2
o2
n8
v0
v1
v2
v5
v5
o2
o2
o2
o2
o2
n0.11
v0
v2
v3
v3
v3
o2
o2
o2
o2
o2
n0.31
v0
v3
v3
v3
v4
o2
o2
o2
o2
o2
n7.1
v0
v4
v5
v5
v5
o2
o2
o2
o2
o2
n9.79
v1
v1
v1
v1
v1
o2
o2
o2
o2
o2
n1.01
v1
v1
v2
v3
v5
o2
o2
o2
o2
o2
n4.71
v1
v1
v3
v4
v4
o2
o2
o2
o2
o2
n2.82
v1
v1
v4
v4
v5
o2
o2
o2
o2
o2
n2.18
v2
v2
v2
v3
v5
o2
o2
o2
o2
o2
n2.5
v2
v2
v3
v3
v4
o2
o2
o2
o2
o2
n6.25
v3
v3
v3
v3
v4
o2
o2
o2
o2
o2
n4.55
v4
v4
v4
v4
v4
C3
n0
C4
n0
C5
n0
O0 0
o54
46
o2
o2
o2
n1.15
v0
v0
v4
o2
o2
o2
n7.77
v0
v4
v4
o2
o2
o2
o2
n4.49
v0
v0
v2
v2
o2
o2
o2
o2
o2
n2.64
v0
v0
v1
v2
v4
o2
o2
o2
o2
o2
n4.34
v0
v0
v2
v2
v4
o2
o2
o2
o2
o2
n3.83
v0
v1
v1
v1
v5
o2
o2
o2
o2
o2
n7.22
v0
v1
v1
v2
v2
o2
o2
o2
o2
o2
n4.43
v0
v1
v2
v3
v5
o2
o2
o2
o2
o2
n0.86
v0
v1
v2
v5
v5
o2
o2
o2
o2
o2
n2.44
v0
v2
v3
v3
v3
o2
o2
o2
o2
o2
n2.18
v0
v3
v3
v3
v4
o2
o2
o2
o2
o2
n4.8
v0
v4
v5
v5
v5
o2
o2
o2
o2
o2
n6.23
v1
v1
v1
v1
v1
o2
o2
o2
o2
o2
n0.76
v1
v1
v2
v3
v5
o2
o2
o2
o2
o2
n9.09
v1
v1
v3
v4
v4
o2
o2
o2
o2
o2
n9.88
v1
v1
v4
v4
v5
o2
o2
o2
o2
o2
n2.3
v2
v2
v2
v3
v5
o2
o2
o2
o2
o2
n4.99
v2
v2
v3
v3
v4
o2
o2
o2
o2
o2
n1.83
v3
v3
v3
v3
v4
o2
o2
o2
o2
o2
n5.36
v4
v4
v4
v4
v4
o2
o2
o2
o2
o2
o2
n9.39
v0
v0
v0
v0
v0
v4
o2
o2
o2
o2
o2
o2
n0.46
v0
v0
v0
v1
v1
v2
o2
o2
o2
o2
o2
o2
n8.71
v0
v0
v0
v3
v5
v5
o2
o2
o2
o2
o2
o2
n9.64
v0
v0
v1
v1
v1
v3
o2
o2
o2
o2
o2
o2
n4.83
v0
v0
v1
v1
v2
v5
o2
o2
o2
o2
o2
o2
n7.9
v0
v0
v1
v1
v3
v4
o2
o2
o2
o2
o2
o2
n9.11
v0
v0
v1
v4
v4
v4
o2
o2
o2
o2
o2
o2
n3.28
v0
v0
v1
v5
v5
v5
o2
o2
o2
o2
o2
o2
n7.68
v0
v0
v2
v2
v2
v4
o2
o2
o2
o2
o2
o2
n5.96
v0
v0
v3
v3
v3
v3
o2
o2
o2
o2
o2
o2
n6.36
v0
v0
v4
v4
v4
v5
o2
o2
o2
o2
o2
o2
n4.61
v0
v1
v1
v1
v1
v1
o2
o2
o2
o2
o2
o2
n9.66
v0
v1
v1
v1
v2
v2
o2
o2
o2
o2
o2
o2
n0.03
v0
v1
v3
v3
v4
v4
o2
o2
o2
o2
o2
o2
n6.79
v0
v2
v2
v2
v2
v4
o2
o2
o2
o2
o2
o2
n1.7
v0
v2
v2
v5
v5
v5
o2
o2
o2
o2
o2
o2
n2.43
v0
v2
v3
v3
v3
v5
o16
o2
o2
o2
o2
o2
o2
n7.25
v0
v3
v3
v4
v4
v5
o2
o2
o2
o2
o2
o2
n5.12
v1
v1
v2
v2
v5
v5
o2
o2
o2
o2
o2
o2
n0.47
v1
v1
v3
v4
v5
v5
o16
o2
o2
o2
o2
o2
o2
n1.04
v1
v2
v2
v3
v3
v4
o2
o2
o2
o2
o2
o2
n7.83
v1
v2
v2
v4
v4
v5
o2
o2
o2
o2
o2
o2
n6.03
v2
v2
v2
v2
v3
v5
o2
o2
o2
o2
o2
o2
n9.16
v2
v2
v2
v3
v4
v4
o2
o2
o2
o2
o2
o2
n3.65
v2
v3
v3
v4
v4
v5
o2
o2
o2
o2
o2
o2
n2.55
v2
v3
v5
v5
v5
v5
k5
5
10
16
22
27
J0 6
0 5.55
1 6.84
2 -7.58
3 -3.81
4 8.15
5 1.92
J1 6
0 8.28
1 0.98
2 4.95
3 7.7
4 0.12
5 -3.58
J2 6
0 5.78
1 5.84
2 1.19
3 9.97
4 9.31
5 2.29
J3 3
2 0.28
3 7.26
5 7.54
J4 6
0 4.38
1 6.72
2 1.96
3 -4.82
4 -5.4
5 -5.62
J5 6
0 3.43
1 1.26
2 9.17
3 -4.56
4 8.71
5 8.06
G0 6
0 9.01
1 2.81
2 6.03
3 2.38
4 4.28
5 -5.94
